49435.23,55.92,67.82
42545.0,64.98,78.8
47471.46,58.24,70.62
39888.25,69.31,84.05
42590.18,64.91,78.72
39356.26,70.24,85.19
40035.49,69.05,83.74
39452.5,70.07,84.98
42930.92,64.4,78.09
42692.06,64.76,78.53
46619.25,59.3,71.91
48159.87,57.4,69.61
44883.95,61.59,74.69
48137.46,57.43,69.65
43967.63,62.88,76.25
43161.4,64.05,77.68
48494.41,57.01,69.13
44478.66,62.16,75.38
42779.03,64.62,78.37
44021.07,62.8,76.16
